experimental-results/reproduced-data/fig4/urquhart-simon-03-04.cnf
c Random Instance of Urquhart's Problem for SAT (size=3 randomSeed=4).
c Like Hole, this problem as been proved to be exponential for resolution.
c N.B. : instance is unsatisfiable by construction.
c 
c Come from the paper 'Hard Examples for Resolution'.
c        Source : Laurent Simon, simon@lri.fr. May 1999.
c 
c n=3, so there is m^2=9 vertices in each part of the bipartite graph. 
c Bases creations : 
c   - a '1' charge is 'there must be an even number of negated vars'
c   - edges contains variables from which all subbases are constructed.
c vertex A0 :(charge=1), (edges=[39,11,13,5])
c vertex A1 :(charge=1), (edges=[22,5,3])
c vertex A2 :(charge=0), (edges=[8,17,4,45,3,24])
c vertex A3 :(charge=0), (edges=[30,14,25,41,21,24,7])
c vertex A4 :(charge=1), (edges=[12,33,7,10])
c vertex A5 :(charge=1), (edges=[23,38,10,9])
c vertex A6 :(charge=1), (edges=[19,35,29,28,44,9,42])
c vertex A7 :(charge=1), (edges=[31,20,27,6,42,26])
c vertex A8 :(charge=0), (edges=[34,15,18,26])
c vertex B0 :(charge=1), (edges=[8,21,1])
c vertex B1 :(charge=0), (edges=[23,13,45,18,1,40])
c vertex B2 :(charge=0), (edges=[22,40,32])
c vertex B3 :(charge=0), (edges=[19,11,6,32,37])
c vertex B4 :(charge=0), (edges=[30,29,37,36])
c vertex B5 :(charge=1), (edges=[31,14,33,35,36,43])
c vertex B6 :(charge=0), (edges=[12,25,28,20,43,2])
c vertex B7 :(charge=0), (edges=[39,17,44,15,2,16])
c vertex B8 :(charge=1), (edges=[34,4,41,38,27,16])
c 
p cnf 45 420
39 11 13 5 0
39 11 -13 -5 0
39 -11 13 -5 0
39 -11 -13 5 0
-39 11 13 -5 0
-39 11 -13 5 0
-39 -11 13 5 0
-39 -11 -13 -5 0
22 5 3 0
22 -5 -3 0
-22 5 -3 0
-22 -5 3 0
8 17 4 45 3 -24 0
8 17 4 45 -3 24 0
8 17 4 -45 3 24 0
8 17 4 -45 -3 -24 0
8 17 -4 45 3 24 0
8 17 -4 45 -3 -24 0
8 17 -4 -45 3 -24 0
8 17 -4 -45 -3 24 0
8 -17 4 45 3 24 0
8 -17 4 45 -3 -24 0
8 -17 4 -45 3 -24 0
8 -17 4 -45 -3 24 0
8 -17 -4 45 3 -24 0
8 -17 -4 45 -3 24 0
8 -17 -4 -45 3 24 0
8 -17 -4 -45 -3 -24 0
-8 17 4 45 3 24 0
-8 17 4 45 -3 -24 0
-8 17 4 -45 3 -24 0
-8 17 4 -45 -3 24 0
-8 17 -4 45 3 -24 0
-8 17 -4 45 -3 24 0
-8 17 -4 -45 3 24 0
-8 17 -4 -45 -3 -24 0
-8 -17 4 45 3 -24 0
-8 -17 4 45 -3 24 0
-8 -17 4 -45 3 24 0
-8 -17 4 -45 -3 -24 0
-8 -17 -4 45 3 24 0
-8 -17 -4 45 -3 -24 0
-8 -17 -4 -45 3 -24 0
-8 -17 -4 -45 -3 24 0
30 14 25 41 21 24 -7 0
30 14 25 41 21 -24 7 0
30 14 25 41 -21 24 7 0
30 14 25 41 -21 -24 -7 0
30 14 25 -41 21 24 7 0
30 14 25 -41 21 -24 -7 0
30 14 25 -41 -21 24 -7 0
30 14 25 -41 -21 -24 7 0
30 14 -25 41 21 24 7 0
30 14 -25 41 21 -24 -7 0
30 14 -25 41 -21 24 -7 0
30 14 -25 41 -21 -24 7 0
30 14 -25 -41 21 24 -7 0
30 14 -25 -41 21 -24 7 0
30 14 -25 -41 -21 24 7 0
30 14 -25 -41 -21 -24 -7 0
30 -14 25 41 21 24 7 0
30 -14 25 41 21 -24 -7 0
30 -14 25 41 -21 24 -7 0
30 -14 25 41 -21 -24 7 0
30 -14 25 -41 21 24 -7 0
30 -14 25 -41 21 -24 7 0
30 -14 25 -41 -21 24 7 0
30 -14 25 -41 -21 -24 -7 0
30 -14 -25 41 21 24 -7 0
30 -14 -25 41 21 -24 7 0
30 -14 -25 41 -21 24 7 0
30 -14 -25 41 -21 -24 -7 0
30 -14 -25 -41 21 24 7 0
30 -14 -25 -41 21 -24 -7 0
30 -14 -25 -41 -21 24 -7 0
30 -14 -25 -41 -21 -24 7 0
-30 14 25 41 21 24 7 0
-30 14 25 41 21 -24 -7 0
-30 14 25 41 -21 24 -7 0
-30 14 25 41 -21 -24 7 0
-30 14 25 -41 21 24 -7 0
-30 14 25 -41 21 -24 7 0
-30 14 25 -41 -21 24 7 0
-30 14 25 -41 -21 -24 -7 0
-30 14 -25 41 21 24 -7 0
-30 14 -25 41 21 -24 7 0
-30 14 -25 41 -21 24 7 0
-30 14 -25 41 -21 -24 -7 0
-30 14 -25 -41 21 24 7 0
-30 14 -25 -41 21 -24 -7 0
-30 14 -25 -41 -21 24 -7 0
-30 14 -25 -41 -21 -24 7 0
-30 -14 25 41 21 24 -7 0
-30 -14 25 41 21 -24 7 0
-30 -14 25 41 -21 24 7 0
-30 -14 25 41 -21 -24 -7 0
-30 -14 25 -41 21 24 7 0
-30 -14 25 -41 21 -24 -7 0
-30 -14 25 -41 -21 24 -7 0
-30 -14 25 -41 -21 -24 7 0
-30 -14 -25 41 21 24 7 0
-30 -14 -25 41 21 -24 -7 0
-30 -14 -25 41 -21 24 -7 0
-30 -14 -25 41 -21 -24 7 0
-30 -14 -25 -41 21 24 -7 0
-30 -14 -25 -41 21 -24 7 0
-30 -14 -25 -41 -21 24 7 0
-30 -14 -25 -41 -21 -24 -7 0
12 33 7 10 0
12 33 -7 -10 0
12 -33 7 -10 0
12 -33 -7 10 0
-12 33 7 -10 0
-12 33 -7 10 0
-12 -33 7 10 0
-12 -33 -7 -10 0
23 38 10 9 0
23 38 -10 -9 0
23 -38 10 -9 0
23 -38 -10 9 0
-23 38 10 -9 0
-23 38 -10 9 0
-23 -38 10 9 0
-23 -38 -10 -9 0
19 35 29 28 44 9 42 0
19 35 29 28 44 -9 -42 0
19 35 29 28 -44 9 -42 0
19 35 29 28 -44 -9 42 0
19 35 29 -28 44 9 -42 0
19 35 29 -28 44 -9 42 0
19 35 29 -28 -44 9 42 0
19 35 29 -28 -44 -9 -42 0
19 35 -29 28 44 9 -42 0
19 35 -29 28 44 -9 42 0
19 35 -29 28 -44 9 42 0
19 35 -29 28 -44 -9 -42 0
19 35 -29 -28 44 9 42 0
19 35 -29 -28 44 -9 -42 0
19 35 -29 -28 -44 9 -42 0
19 35 -29 -28 -44 -9 42 0
19 -35 29 28 44 9 -42 0
19 -35 29 28 44 -9 42 0
19 -35 29 28 -44 9 42 0
19 -35 29 28 -44 -9 -42 0
19 -35 29 -28 44 9 42 0
19 -35 29 -28 44 -9 -42 0
19 -35 29 -28 -44 9 -42 0
19 -35 29 -28 -44 -9 42 0
19 -35 -29 28 44 9 42 0
19 -35 -29 28 44 -9 -42 0
19 -35 -29 28 -44 9 -42 0
19 -35 -29 28 -44 -9 42 0
19 -35 -29 -28 44 9 -42 0
19 -35 -29 -28 44 -9 42 0
19 -35 -29 -28 -44 9 42 0
19 -35 -29 -28 -44 -9 -42 0
-19 35 29 28 44 9 -42 0
-19 35 29 28 44 -9 42 0
-19 35 29 28 -44 9 42 0
-19 35 29 28 -44 -9 -42 0
-19 35 29 -28 44 9 42 0
-19 35 29 -28 44 -9 -42 0
-19 35 29 -28 -44 9 -42 0
-19 35 29 -28 -44 -9 42 0
-19 35 -29 28 44 9 42 0
-19 35 -29 28 44 -9 -42 0
-19 35 -29 28 -44 9 -42 0
-19 35 -29 28 -44 -9 42 0
-19 35 -29 -28 44 9 -42 0
-19 35 -29 -28 44 -9 42 0
-19 35 -29 -28 -44 9 42 0
-19 35 -29 -28 -44 -9 -42 0
-19 -35 29 28 44 9 42 0
-19 -35 29 28 44 -9 -42 0
-19 -35 29 28 -44 9 -42 0
-19 -35 29 28 -44 -9 42 0
-19 -35 29 -28 44 9 -42 0
-19 -35 29 -28 44 -9 42 0
-19 -35 29 -28 -44 9 42 0
-19 -35 29 -28 -44 -9 -42 0
-19 -35 -29 28 44 9 -42 0
-19 -35 -29 28 44 -9 42 0
-19 -35 -29 28 -44 9 42 0
-19 -35 -29 28 -44 -9 -42 0
-19 -35 -29 -28 44 9 42 0
-19 -35 -29 -28 44 -9 -42 0
-19 -35 -29 -28 -44 9 -42 0
-19 -35 -29 -28 -44 -9 42 0
31 20 27 6 42 26 0
31 20 27 6 -42 -26 0
31 20 27 -6 42 -26 0
31 20 27 -6 -42 26 0
31 20 -27 6 42 -26 0
31 20 -27 6 -42 26 0
31 20 -27 -6 42 26 0
31 20 -27 -6 -42 -26 0
31 -20 27 6 42 -26 0
31 -20 27 6 -42 26 0
31 -20 27 -6 42 26 0
31 -20 27 -6 -42 -26 0
31 -20 -27 6 42 26 0
31 -20 -27 6 -42 -26 0
31 -20 -27 -6 42 -26 0
31 -20 -27 -6 -42 26 0
-31 20 27 6 42 -26 0
-31 20 27 6 -42 26 0
-31 20 27 -6 42 26 0
-31 20 27 -6 -42 -26 0
-31 20 -27 6 42 26 0
-31 20 -27 6 -42 -26 0
-31 20 -27 -6 42 -26 0
-31 20 -27 -6 -42 26 0
-31 -20 27 6 42 26 0
-31 -20 27 6 -42 -26 0
-31 -20 27 -6 42 -26 0
-31 -20 27 -6 -42 26 0
-31 -20 -27 6 42 -26 0
-31 -20 -27 6 -42 26 0
-31 -20 -27 -6 42 26 0
-31 -20 -27 -6 -42 -26 0
34 15 18 -26 0
34 15 -18 26 0
34 -15 18 26 0
34 -15 -18 -26 0
-34 15 18 26 0
-34 15 -18 -26 0
-34 -15 18 -26 0
-34 -15 -18 26 0
8 21 1 0
8 -21 -1 0
-8 21 -1 0
-8 -21 1 0
23 13 45 18 1 -40 0
23 13 45 18 -1 40 0
23 13 45 -18 1 40 0
23 13 45 -18 -1 -40 0
23 13 -45 18 1 40 0
23 13 -45 18 -1 -40 0
23 13 -45 -18 1 -40 0
23 13 -45 -18 -1 40 0
23 -13 45 18 1 40 0
23 -13 45 18 -1 -40 0
23 -13 45 -18 1 -40 0
23 -13 45 -18 -1 40 0
23 -13 -45 18 1 -40 0
23 -13 -45 18 -1 40 0
23 -13 -45 -18 1 40 0
23 -13 -45 -18 -1 -40 0
-23 13 45 18 1 40 0
-23 13 45 18 -1 -40 0
-23 13 45 -18 1 -40 0
-23 13 45 -18 -1 40 0
-23 13 -45 18 1 -40 0
-23 13 -45 18 -1 40 0
-23 13 -45 -18 1 40 0
-23 13 -45 -18 -1 -40 0
-23 -13 45 18 1 -40 0
-23 -13 45 18 -1 40 0
-23 -13 45 -18 1 40 0
-23 -13 45 -18 -1 -40 0
-23 -13 -45 18 1 40 0
-23 -13 -45 18 -1 -40 0
-23 -13 -45 -18 1 -40 0
-23 -13 -45 -18 -1 40 0
22 40 -32 0
22 -40 32 0
-22 40 32 0
-22 -40 -32 0
19 11 6 32 -37 0
19 11 6 -32 37 0
19 11 -6 32 37 0
19 11 -6 -32 -37 0
19 -11 6 32 37 0
19 -11 6 -32 -37 0
19 -11 -6 32 -37 0
19 -11 -6 -32 37 0
-19 11 6 32 37 0
-19 11 6 -32 -37 0
-19 11 -6 32 -37 0
-19 11 -6 -32 37 0
-19 -11 6 32 -37 0
-19 -11 6 -32 37 0
-19 -11 -6 32 37 0
-19 -11 -6 -32 -37 0
30 29 37 -36 0
30 29 -37 36 0
30 -29 37 36 0
30 -29 -37 -36 0
-30 29 37 36 0
-30 29 -37 -36 0
-30 -29 37 -36 0
-30 -29 -37 36 0
31 14 33 35 36 43 0
31 14 33 35 -36 -43 0
31 14 33 -35 36 -43 0
31 14 33 -35 -36 43 0
31 14 -33 35 36 -43 0
31 14 -33 35 -36 43 0
31 14 -33 -35 36 43 0
31 14 -33 -35 -36 -43 0
31 -14 33 35 36 -43 0
31 -14 33 35 -36 43 0
31 -14 33 -35 36 43 0
31 -14 33 -35 -36 -43 0
31 -14 -33 35 36 43 0
31 -14 -33 35 -36 -43 0
31 -14 -33 -35 36 -43 0
31 -14 -33 -35 -36 43 0
-31 14 33 35 36 -43 0
-31 14 33 35 -36 43 0
-31 14 33 -35 36 43 0
-31 14 33 -35 -36 -43 0
-31 14 -33 35 36 43 0
-31 14 -33 35 -36 -43 0
-31 14 -33 -35 36 -43 0
-31 14 -33 -35 -36 43 0
-31 -14 33 35 36 43 0
-31 -14 33 35 -36 -43 0
-31 -14 33 -35 36 -43 0
-31 -14 33 -35 -36 43 0
-31 -14 -33 35 36 -43 0
-31 -14 -33 35 -36 43 0
-31 -14 -33 -35 36 43 0
-31 -14 -33 -35 -36 -43 0
12 25 28 20 43 -2 0
12 25 28 20 -43 2 0
12 25 28 -20 43 2 0
12 25 28 -20 -43 -2 0
12 25 -28 20 43 2 0
12 25 -28 20 -43 -2 0
12 25 -28 -20 43 -2 0
12 25 -28 -20 -43 2 0
12 -25 28 20 43 2 0
12 -25 28 20 -43 -2 0
12 -25 28 -20 43 -2 0
12 -25 28 -20 -43 2 0
12 -25 -28 20 43 -2 0
12 -25 -28 20 -43 2 0
12 -25 -28 -20 43 2 0
12 -25 -28 -20 -43 -2 0
-12 25 28 20 43 2 0
-12 25 28 20 -43 -2 0
-12 25 28 -20 43 -2 0
-12 25 28 -20 -43 2 0
-12 25 -28 20 43 -2 0
-12 25 -28 20 -43 2 0
-12 25 -28 -20 43 2 0
-12 25 -28 -20 -43 -2 0
-12 -25 28 20 43 -2 0
-12 -25 28 20 -43 2 0
-12 -25 28 -20 43 2 0
-12 -25 28 -20 -43 -2 0
-12 -25 -28 20 43 2 0
-12 -25 -28 20 -43 -2 0
-12 -25 -28 -20 43 -2 0
-12 -25 -28 -20 -43 2 0
39 17 44 15 2 -16 0
39 17 44 15 -2 16 0
39 17 44 -15 2 16 0
39 17 44 -15 -2 -16 0
39 17 -44 15 2 16 0
39 17 -44 15 -2 -16 0
39 17 -44 -15 2 -16 0
39 17 -44 -15 -2 16 0
39 -17 44 15 2 16 0
39 -17 44 15 -2 -16 0
39 -17 44 -15 2 -16 0
39 -17 44 -15 -2 16 0
39 -17 -44 15 2 -16 0
39 -17 -44 15 -2 16 0
39 -17 -44 -15 2 16 0
39 -17 -44 -15 -2 -16 0
-39 17 44 15 2 16 0
-39 17 44 15 -2 -16 0
-39 17 44 -15 2 -16 0
-39 17 44 -15 -2 16 0
-39 17 -44 15 2 -16 0
-39 17 -44 15 -2 16 0
-39 17 -44 -15 2 16 0
-39 17 -44 -15 -2 -16 0
-39 -17 44 15 2 -16 0
-39 -17 44 15 -2 16 0
-39 -17 44 -15 2 16 0
-39 -17 44 -15 -2 -16 0
-39 -17 -44 15 2 16 0
-39 -17 -44 15 -2 -16 0
-39 -17 -44 -15 2 -16 0
-39 -17 -44 -15 -2 16 0
34 4 41 38 27 16 0
34 4 41 38 -27 -16 0
34 4 41 -38 27 -16 0
34 4 41 -38 -27 16 0
34 4 -41 38 27 -16 0
34 4 -41 38 -27 16 0
34 4 -41 -38 27 16 0
34 4 -41 -38 -27 -16 0
34 -4 41 38 27 -16 0
34 -4 41 38 -27 16 0
34 -4 41 -38 27 16 0
34 -4 41 -38 -27 -16 0
34 -4 -41 38 27 16 0
34 -4 -41 38 -27 -16 0
34 -4 -41 -38 27 -16 0
34 -4 -41 -38 -27 16 0
-34 4 41 38 27 -16 0
-34 4 41 38 -27 16 0
-34 4 41 -38 27 16 0
-34 4 41 -38 -27 -16 0
-34 4 -41 38 27 16 0
-34 4 -41 38 -27 -16 0
-34 4 -41 -38 27 -16 0
-34 4 -41 -38 -27 16 0
-34 -4 41 38 27 16 0
-34 -4 41 38 -27 -16 0
-34 -4 41 -38 27 -16 0
-34 -4 41 -38 -27 16 0
-34 -4 -41 38 27 -16 0
-34 -4 -41 38 -27 16 0
-34 -4 -41 -38 27 16 0
-34 -4 -41 -38 -27 -16 0
